
Gurobi 9.0.2 (win64) logging started Sun Dec 27 05:33:38 2020

Changed value of parameter logfile to result\SunCable-20201227T0415\scenario_2030_m10_cab2000.log
   Prev:   Default: 
Gurobi Optimizer version 9.0.2 build v9.0.2rc0 (win64)
Optimize a model with 1243974 rows, 762167 columns and 3491691 nonzeros
Model fingerprint: 0x0b1b54ad
Coefficient statistics:
  Matrix range     [1e-07, 3e+05]
  Objective range  [1e+00, 1e+00]
  Bounds range     [0e+00, 0e+00]
  RHS range        [2e-05, 3e+08]
Warning: Model contains large matrix coefficient range
         Consider reformulating model or setting NumericFocus parameter
         to avoid numerical issues.

Concurrent LP optimizer: primal simplex, dual simplex, and barrier
Showing barrier log only...

Presolve removed 1068997 rows and 595935 columns
Presolve time: 2.66s
Presolved: 174977 rows, 280098 columns, 652320 nonzeros

Ordering time: 0.08s

Barrier statistics:
 Dense cols : 5
 AA' NZ     : 6.422e+05
 Factor NZ  : 3.150e+06 (roughly 200 MBytes of memory)
 Factor Ops : 7.040e+07 (less than 1 second per iteration)
 Threads    : 30

                  Objective                Residual
Iter       Primal          Dual         Primal    Dual     Compl     Time
   0  -2.36042911e+16 -1.07293652e+15  6.88e+06 2.59e+04  2.83e+12     3s
   1  -5.15572805e+15 -1.08581329e+15  1.50e+06 4.54e+06  8.06e+11     3s
   2  -1.56061216e+15 -1.02958806e+15  4.56e+05 1.20e+06  2.42e+11     4s
   3  -3.70261260e+14 -9.29750530e+14  1.09e+05 1.63e+05  5.28e+10     4s
   4  -8.72865759e+13 -5.80811003e+14  2.44e+04 4.07e+04  1.26e+10     4s
   5  -2.73168177e+13 -3.52349761e+14  7.66e+03 1.64e+04  4.43e+09     5s
   6  -9.44404483e+12 -1.85948446e+14  2.78e+03 3.37e+03  1.44e+09     5s
   7  -1.38003469e+12 -9.16911543e+13  5.10e+02 3.34e+02  3.03e+08     5s
   8   3.37464360e+11 -1.64016223e+13  1.19e+01 7.50e+00  3.11e+07     5s
   9   1.35682518e+11 -2.60609918e+12  1.26e+00 8.47e-01  4.91e+06     6s
  10   6.41260810e+10 -1.31644635e+12  4.39e-01 2.55e-01  2.45e+06     6s
  11   2.99694692e+10 -3.57578303e+11  1.33e-01 7.45e-09  6.87e+05     6s
  12   2.19294748e+10 -1.00659254e+11  8.63e-02 7.45e-09  2.19e+05     6s
  13   1.30187865e+10 -2.33966760e+10  4.11e-02 9.31e-09  6.56e+04     7s
  14   9.30793174e+09 -7.48967142e+09  1.78e-02 9.31e-09  3.02e+04     7s
  15   7.68670323e+09  1.22251054e+09  7.48e-03 9.31e-09  1.16e+04     7s
  16   6.98728667e+09  3.99607573e+09  3.55e-03 7.45e-09  5.37e+03     7s
  17   6.70130762e+09  4.86844337e+09  1.97e-03 7.45e-09  3.28e+03     8s
  18   6.58063035e+09  5.44370530e+09  1.30e-03 5.59e-09  2.03e+03     8s
  19   6.51564172e+09  5.62184739e+09  9.28e-04 5.59e-09  1.59e+03     8s
  20   6.49994325e+09  5.84887435e+09  8.40e-04 3.73e-09  1.16e+03     8s
  21   6.47129561e+09  5.96426862e+09  6.81e-04 3.73e-09  9.03e+02     9s
  22   6.44537976e+09  6.09475941e+09  5.29e-04 2.79e-09  6.25e+02     9s
  23   6.42033292e+09  6.18787158e+09  3.73e-04 1.86e-09  4.14e+02     9s
  24   6.41107206e+09  6.22303283e+09  3.20e-04 1.86e-09  3.35e+02    10s
  25   6.39981186e+09  6.26380404e+09  2.47e-04 1.86e-09  2.42e+02    10s
  26   6.38678730e+09  6.29132586e+09  1.78e-04 1.86e-09  1.70e+02    10s
  27   6.37879098e+09  6.31228825e+09  1.21e-04 1.86e-09  1.18e+02    11s
  28   6.37471928e+09  6.32339337e+09  9.56e-05 1.86e-09  9.14e+01    11s
  29   6.36948603e+09  6.33561303e+09  5.69e-05 1.86e-09  6.03e+01    12s
  30   6.36642869e+09  6.34633654e+09  3.39e-05 1.86e-09  3.57e+01    12s
  31   6.36409436e+09  6.35149216e+09  1.73e-05 1.86e-09  2.24e+01    12s
  32   6.36293667e+09  6.35319235e+09  9.07e-06 1.86e-09  1.72e+01    13s
  33   6.36275048e+09  6.35598493e+09  7.72e-06 1.86e-09  1.20e+01    13s
  34   6.36258404e+09  6.35824744e+09  6.55e-06 1.86e-09  7.70e+00    13s
  35   6.36214721e+09  6.35939713e+09  3.42e-06 1.86e-09  4.88e+00    13s
  36   6.36194822e+09  6.35978043e+09  2.00e-06 1.86e-09  3.83e+00    14s
  37   6.36190439e+09  6.35994629e+09  1.69e-06 1.86e-09  3.46e+00    14s
  38   6.36178293e+09  6.36023785e+09  8.41e-07 1.86e-09  2.73e+00    14s
  39   6.36174954e+09  6.36064890e+09  6.27e-07 1.86e-09  1.94e+00    14s
  40   6.36168432e+09  6.36107817e+09  1.71e-07 1.86e-09  1.07e+00    15s
  41   6.36165861e+09  6.36123059e+09  1.66e-07 1.86e-09  7.53e-01    15s
  42   6.36165533e+09  6.36141134e+09  1.90e-07 1.86e-09  4.29e-01    15s
  43   6.36165262e+09  6.36155733e+09  2.73e-07 2.79e-09  1.68e-01    15s
  44   6.36165179e+09  6.36162836e+09  9.00e-09 2.79e-09  4.12e-02    16s
  45   6.36165137e+09  6.36164582e+09  2.36e-08 2.79e-09  9.76e-03    16s
  46   6.36165133e+09  6.36164894e+09  4.55e-12 2.79e-09  4.21e-03    16s
  47   6.36165133e+09  6.36165128e+09  9.54e-12 1.45e-08  8.99e-05    17s
  48   6.36165132e+09  6.36165132e+09  1.22e-07 1.49e-08  1.98e-08    17s
  49   6.36165132e+09  6.36165132e+09  4.98e-10 1.70e-08  2.00e-12    17s

Barrier solved model in 49 iterations and 17.18 seconds
Optimal objective 6.36165132e+09

Crossover log...

   19426 DPushes remaining with DInf 0.0000000e+00                17s
       0 DPushes remaining with DInf 0.0000000e+00                18s
Warning: Markowitz tolerance tightened to 0.5

   79202 PPushes remaining with PInf 0.0000000e+00                18s
   14038 PPushes remaining with PInf 0.0000000e+00                21s
       0 PPushes remaining with PInf 0.0000000e+00                22s

  Push phase complete: Pinf 0.0000000e+00, Dinf 8.5007277e-09     22s

Iteration    Objective       Primal Inf.    Dual Inf.      Time
   80947    6.3616513e+09   0.000000e+00   0.000000e+00     24s

Solved with barrier
Solved in 80947 iterations and 24.07 seconds
Optimal objective  6.361651326e+09
Warning: unscaled primal violation = 0.00087273 and residual = 0.00087273
